30 22
19 450
18 65
15 412
5 825
19 433
18 699
18 203
15 883
5 374
10 613
14 834
15 850
3 963
1 644
18 395
19 741
15 625
18 211
19 109
12 839
14 791
9 96
3 108
5 952
4 497
6 458
7 961
2 431
11 890
5 555
